914901
22 24 45980
24 4 52566
4 19 26533
19 27 17774
27 2 15288
2 21 11546
21 1 6578
1 10 6947
10 35 6355
35 11 5412
11 8 17581
8 15 26227
15 16 36816
16 3 71701
3 14 30026
14 17 42391
17 9 102410
9 6 47658
6 36 22446
36 29 16895
29 38 745
38 23 7449
23 34 31609
34 12 39715
12 33 3967
33 26 15458
26 5 32088
5 32 3290
32 20 24202
20 30 17244
30 37 941
37 39 6534
39 25 4093
25 31 7859
31 28 12751
28 13 6411
13 7 23211
7 18 20722
18 40 18404
40 22 29078
